Ebsel-Fav_Hyb3                          
   1.00000000000000     
    16.5499992370999998    0.0000000000000000    0.0000000000000000
     0.0000000000000000   17.5200004577999984    0.0000000000000000
     0.0000000000000000    0.0000000000000000   19.6079998015999983
   P    O    N    C    Se   H    F 
    80     3     4    18     1    13     1
Direct
  0.0965166691698955  0.2252884778120238  0.4469337409240695
  0.2965986842245931  0.2253321461589416  0.4462076595191765
  0.4968143845446168  0.2259776349786796  0.4443648950425347
  0.6966092291371025  0.2259251675844212  0.4449919005579583
  0.8968538361348019  0.2259253665235195  0.4466998504661124
  0.0970191860688865  0.4766053981463458  0.4431278992847130
  0.2961921799771146  0.4761903303666881  0.4400551170658937
  0.4967304745354678  0.4762590148055838  0.4381852419256027
  0.6969601259868111  0.4776383034422182  0.4397885629413764
  0.8973867676348921  0.4782629673401995  0.4423045996249214
  0.0967749470399215  0.7277840290053325  0.4462333270765679
  0.2965304190229183  0.7278065364200527  0.4458957018859862
  0.4964915558187896  0.7277291250303414  0.4452403647538211
  0.6965872577492285  0.7270500724790963  0.4445767926779088
  0.8969324808910986  0.7271148544701620  0.4450931055493105
  0.0964279069479750  0.9772770017629706  0.4508913817697834
  0.2972897756549173  0.9771785914812803  0.4508225623249831
  0.4970512496198426  0.9759054026344692  0.4507674671597537
  0.6962873501665651  0.9749259944789881  0.4505356182118496
  0.8960836458142309  0.9758420030773807  0.4503643404482857
  0.0966542811427257  0.0182701934502609  0.5591530366508141
  0.2972907547648584  0.0186581203450232  0.5589256180036817
  0.4972661386022595  0.0186347898734440  0.5585617770454837
  0.6957750837346031  0.0179973678444827  0.5581529527313925
  0.8962634942558807  0.0175558597242075  0.5584008422490964
  0.0967393857182207  0.2695389311010347  0.5541070827553309
  0.2976918886939984  0.2696674984845098  0.5533341393128526
  0.4975114619651682  0.2706262632757574  0.5514877458110289
  0.6961891086065407  0.2714436163735616  0.5517200099078646
  0.8958400473128029  0.2708995644247278  0.5535372883491660
  0.0971891278434705  0.5166931686280373  0.5515751744220980
  0.2974689097561538  0.5156832481235472  0.5485040392972500
  0.4966730498372263  0.5147364744113960  0.5469308181942791
  0.6968483273216037  0.5161656467102865  0.5489469068578000
  0.8961997415254531  0.5174045327372468  0.5509738800178141
  0.0967871408127299  0.7653897183587079  0.5554486027709248
  0.2967506306621163  0.7646312618828192  0.5555444504584972
  0.4961870099279471  0.7626345417329626  0.5555004398009846
  0.6962747738526432  0.7622463584718939  0.5545850542873645
  0.8968546578362128  0.7635156425786473  0.5546619134723385
  0.9963680661480619  0.1411123627669854  0.4490633841242598
  0.1965751008325995  0.1408623019747463  0.4487333133285583
  0.3969910291600645  0.1413216906751840  0.4480428057696147
  0.5967812239834119  0.1412044386793704  0.4461185055481394
  0.7966823365797737  0.1420122848276597  0.4478321572709476
  0.9965650237962737  0.3928620532813764  0.4435928800129258
  0.1962739323137401  0.3915068102646274  0.4428905645925694
  0.3964783878700193  0.3917827087331439  0.4414343705772061
  0.5975322126328001  0.3923432449928846  0.4402634469022906
  0.7974801763371966  0.3935610580566666  0.4413440610436776
  0.9971851603367492  0.6429811335801405  0.4445697615823769
  0.1966954036759785  0.6434365717361720  0.4447102235465517
  0.3964045512794103  0.6432783481291726  0.4419828259059837
  0.5961734593358019  0.6428537273642851  0.4428925837902284
  0.7968407591802992  0.6425330503852165  0.4430956744441441
  0.9968605343726930  0.8924392365442940  0.4499023590897680
  0.1968286074956008  0.8933172682984005  0.4499133621547499
  0.3966690962800296  0.8921927672740160  0.4505078192563963
  0.5962343236257933  0.8907538325834438  0.4509408700969579
  0.7965364760788273  0.8909997032850858  0.4503663451936460
  0.9960333514284927  0.1025425508926314  0.5580058780580224
  0.1968580239903701  0.1029470204185814  0.5578669135594879
  0.3974107236471735  0.1033913819175417  0.5573732433328149
  0.5968257157514659  0.1036774646449520  0.5554737510879788
  0.7962121447673248  0.1018037649126171  0.5563715800323495
  0.9968314315866417  0.3543139082641130  0.5526330683171783
  0.1972428034012550  0.3536079470979373  0.5521509853125982
  0.3973192373736967  0.3547122596494413  0.5510958568551640
  0.5965144929720096  0.3561693865910426  0.5501031540868255
  0.7961729617723194  0.3555932547993347  0.5504872451217204
  0.9969894909321824  0.6010665580221239  0.5524995388933415
  0.1978445992790781  0.6003417601044956  0.5521567970016328
  0.3975047457335578  0.5996724046525543  0.5490435253121763
  0.5960676667916819  0.5995503973080140  0.5502650790656182
  0.7959343735893090  0.6018775318301894  0.5512146288028105
  0.9960130436249450  0.8490502374232990  0.5572489619710247
  0.1969723683186025  0.8496528047704005  0.5573427206245496
  0.3972421155494624  0.8484743812222566  0.5579438690428086
  0.5965724476687987  0.8470393849547688  0.5584140222086474
  0.7960212335339936  0.8471591687077897  0.5576582240386994
  0.5765561282469486  0.7239212855169739  0.7148956371221049
  0.6169752923008376  0.1294465790446779  0.7203115041180451
  0.5220622689404232  0.3559382908244310  0.7207766764260116
  0.6256344014711452  0.5988029048332196  0.7209535162136064
  0.7437798226917044  0.1803386629380141  0.7141617431582135
  0.6860384038440607  0.3249983884809709  0.7280064270998711
  0.4943571127549571  0.2286462475551087  0.7293349520169501
  0.4846433966735005  0.6177471949795285  0.7186850852724906
  0.4827600481226002  0.5376821054471990  0.7185845446136903
  0.5649640155649335  0.6540046332974678  0.7180128142386596
  0.7094739676183499  0.6120201949530208  0.7200376351786688
  0.4123172793437228  0.6592256183522152  0.7185105714861236
  0.4095360954066910  0.4979123691175203  0.7173634613586620
  0.7625172751299348  0.5491025610370927  0.7198393591917770
  0.7429202343852194  0.6861769814725772  0.7197294468302898
  0.3389921762139489  0.6203843168558509  0.7178916464124019
  0.3380085009992855  0.5401805013395392  0.7171029935577182
  0.8460040538943124  0.5595541061366077  0.7188691340190834
  0.8265258373770450  0.6955309969151647  0.7185536760365395
  0.8788433520049868  0.6329611889804636  0.7177742835895207
  0.6337613314719575  0.2677190033985032  0.7250175859331516
  0.6598913143416850  0.1878615686100908  0.7201555133497991
  0.7968160068450942  0.2391331090368891  0.7148373197434681
  0.7644473000797193  0.3107200197456716  0.7240880748495515
  0.5453881485865899  0.2885031892996285  0.7250780615141940
  0.5882267916502563  0.4943842217436205  0.7194379199852320
  0.4156155768526054  0.7214725787265375  0.7183944962418849
  0.4090022804691633  0.4357435249557837  0.7164236074473304
  0.7389472627007276  0.4909685296479058  0.7208113679903395
  0.7025771469552571  0.7350356682260528  0.7204817504407969
  0.2822153158429653  0.6520110565711138  0.7170988271438078
  0.2803250326978436  0.5099484122628071  0.7161221684401996
  0.8851754907325340  0.5094634366040364  0.7188503749410292
  0.8510354205316705  0.7533982610530655  0.7183213887000778
  0.9441507255833645  0.6412748842239538  0.7164909080638336
  0.7637933088993147  0.1261614089829021  0.7046190795233760
  0.8608378886668819  0.2272317446986916  0.7078549764714808
  0.4341759294188660  0.2387099455999740  0.7245868905313749
  0.5182125143543448  0.1743841687106672  0.7270252569636170
  0.8152431879947404  0.3712408766762261  0.7289809002219068
 
  0.00000000E+00  0.00000000E+00  0.00000000E+00
  0.00000000E+00  0.00000000E+00  0.00000000E+00
  0.00000000E+00  0.00000000E+00  0.00000000E+00
  0.00000000E+00  0.00000000E+00  0.00000000E+00
  0.00000000E+00  0.00000000E+00  0.00000000E+00
  0.00000000E+00  0.00000000E+00  0.00000000E+00
  0.00000000E+00  0.00000000E+00  0.00000000E+00
  0.00000000E+00  0.00000000E+00  0.00000000E+00
  0.00000000E+00  0.00000000E+00  0.00000000E+00
  0.00000000E+00  0.00000000E+00  0.00000000E+00
  0.00000000E+00  0.00000000E+00  0.00000000E+00
  0.00000000E+00  0.00000000E+00  0.00000000E+00
  0.00000000E+00  0.00000000E+00  0.00000000E+00
  0.00000000E+00  0.00000000E+00  0.00000000E+00
  0.00000000E+00  0.00000000E+00  0.00000000E+00
  0.00000000E+00  0.00000000E+00  0.00000000E+00
  0.00000000E+00  0.00000000E+00  0.00000000E+00
  0.00000000E+00  0.00000000E+00  0.00000000E+00
  0.00000000E+00  0.00000000E+00  0.00000000E+00
  0.00000000E+00  0.00000000E+00  0.00000000E+00
  0.00000000E+00  0.00000000E+00  0.00000000E+00
  0.00000000E+00  0.00000000E+00  0.00000000E+00
  0.00000000E+00  0.00000000E+00  0.00000000E+00
  0.00000000E+00  0.00000000E+00  0.00000000E+00
  0.00000000E+00  0.00000000E+00  0.00000000E+00
  0.00000000E+00  0.00000000E+00  0.00000000E+00
  0.00000000E+00  0.00000000E+00  0.00000000E+00
  0.00000000E+00  0.00000000E+00  0.00000000E+00
  0.00000000E+00  0.00000000E+00  0.00000000E+00
  0.00000000E+00  0.00000000E+00  0.00000000E+00
  0.00000000E+00  0.00000000E+00  0.00000000E+00
  0.00000000E+00  0.00000000E+00  0.00000000E+00
  0.00000000E+00  0.00000000E+00  0.00000000E+00
  0.00000000E+00  0.00000000E+00  0.00000000E+00
  0.00000000E+00  0.00000000E+00  0.00000000E+00
  0.00000000E+00  0.00000000E+00  0.00000000E+00
  0.00000000E+00  0.00000000E+00  0.00000000E+00
  0.00000000E+00  0.00000000E+00  0.00000000E+00
  0.00000000E+00  0.00000000E+00  0.00000000E+00
  0.00000000E+00  0.00000000E+00  0.00000000E+00
  0.00000000E+00  0.00000000E+00  0.00000000E+00
  0.00000000E+00  0.00000000E+00  0.00000000E+00
  0.00000000E+00  0.00000000E+00  0.00000000E+00
  0.00000000E+00  0.00000000E+00  0.00000000E+00
  0.00000000E+00  0.00000000E+00  0.00000000E+00
  0.00000000E+00  0.00000000E+00  0.00000000E+00
  0.00000000E+00  0.00000000E+00  0.00000000E+00
  0.00000000E+00  0.00000000E+00  0.00000000E+00
  0.00000000E+00  0.00000000E+00  0.00000000E+00
  0.00000000E+00  0.00000000E+00  0.00000000E+00
  0.00000000E+00  0.00000000E+00  0.00000000E+00
  0.00000000E+00  0.00000000E+00  0.00000000E+00
  0.00000000E+00  0.00000000E+00  0.00000000E+00
  0.00000000E+00  0.00000000E+00  0.00000000E+00
  0.00000000E+00  0.00000000E+00  0.00000000E+00
  0.00000000E+00  0.00000000E+00  0.00000000E+00
  0.00000000E+00  0.00000000E+00  0.00000000E+00
  0.00000000E+00  0.00000000E+00  0.00000000E+00
  0.00000000E+00  0.00000000E+00  0.00000000E+00
  0.00000000E+00  0.00000000E+00  0.00000000E+00
  0.00000000E+00  0.00000000E+00  0.00000000E+00
  0.00000000E+00  0.00000000E+00  0.00000000E+00
  0.00000000E+00  0.00000000E+00  0.00000000E+00
  0.00000000E+00  0.00000000E+00  0.00000000E+00
  0.00000000E+00  0.00000000E+00  0.00000000E+00
  0.00000000E+00  0.00000000E+00  0.00000000E+00
  0.00000000E+00  0.00000000E+00  0.00000000E+00
  0.00000000E+00  0.00000000E+00  0.00000000E+00
  0.00000000E+00  0.00000000E+00  0.00000000E+00
  0.00000000E+00  0.00000000E+00  0.00000000E+00
  0.00000000E+00  0.00000000E+00  0.00000000E+00
  0.00000000E+00  0.00000000E+00  0.00000000E+00
  0.00000000E+00  0.00000000E+00  0.00000000E+00
  0.00000000E+00  0.00000000E+00  0.00000000E+00
  0.00000000E+00  0.00000000E+00  0.00000000E+00
  0.00000000E+00  0.00000000E+00  0.00000000E+00
  0.00000000E+00  0.00000000E+00  0.00000000E+00
  0.00000000E+00  0.00000000E+00  0.00000000E+00
  0.00000000E+00  0.00000000E+00  0.00000000E+00
  0.00000000E+00  0.00000000E+00  0.00000000E+00
  0.00000000E+00  0.00000000E+00  0.00000000E+00
  0.00000000E+00  0.00000000E+00  0.00000000E+00
  0.00000000E+00  0.00000000E+00  0.00000000E+00
  0.00000000E+00  0.00000000E+00  0.00000000E+00
  0.00000000E+00  0.00000000E+00  0.00000000E+00
  0.00000000E+00  0.00000000E+00  0.00000000E+00
  0.00000000E+00  0.00000000E+00  0.00000000E+00
  0.00000000E+00  0.00000000E+00  0.00000000E+00
  0.00000000E+00  0.00000000E+00  0.00000000E+00
  0.00000000E+00  0.00000000E+00  0.00000000E+00
  0.00000000E+00  0.00000000E+00  0.00000000E+00
  0.00000000E+00  0.00000000E+00  0.00000000E+00
  0.00000000E+00  0.00000000E+00  0.00000000E+00
  0.00000000E+00  0.00000000E+00  0.00000000E+00
  0.00000000E+00  0.00000000E+00  0.00000000E+00
  0.00000000E+00  0.00000000E+00  0.00000000E+00
  0.00000000E+00  0.00000000E+00  0.00000000E+00
  0.00000000E+00  0.00000000E+00  0.00000000E+00
  0.00000000E+00  0.00000000E+00  0.00000000E+00
  0.00000000E+00  0.00000000E+00  0.00000000E+00
  0.00000000E+00  0.00000000E+00  0.00000000E+00
  0.00000000E+00  0.00000000E+00  0.00000000E+00
  0.00000000E+00  0.00000000E+00  0.00000000E+00
  0.00000000E+00  0.00000000E+00  0.00000000E+00
  0.00000000E+00  0.00000000E+00  0.00000000E+00
  0.00000000E+00  0.00000000E+00  0.00000000E+00
  0.00000000E+00  0.00000000E+00  0.00000000E+00
  0.00000000E+00  0.00000000E+00  0.00000000E+00
  0.00000000E+00  0.00000000E+00  0.00000000E+00
  0.00000000E+00  0.00000000E+00  0.00000000E+00
  0.00000000E+00  0.00000000E+00  0.00000000E+00
  0.00000000E+00  0.00000000E+00  0.00000000E+00
  0.00000000E+00  0.00000000E+00  0.00000000E+00
  0.00000000E+00  0.00000000E+00  0.00000000E+00
  0.00000000E+00  0.00000000E+00  0.00000000E+00
  0.00000000E+00  0.00000000E+00  0.00000000E+00
  0.00000000E+00  0.00000000E+00  0.00000000E+00
  0.00000000E+00  0.00000000E+00  0.00000000E+00
  0.00000000E+00  0.00000000E+00  0.00000000E+00
  0.00000000E+00  0.00000000E+00  0.00000000E+00
