 Black-Phos_5x4x1                       
   1.00000000000000     
    16.5499997140000019    0.0000000000000000    0.0000000000000000
     0.0000000000000000   17.5200004575999984    0.0000000000000000
     0.0000000000000000    0.0000000000000000   19.6079998015999983
   P    O    N    C    Se   H 
    80     1     1    13     1     9
Direct
  0.0999786983953322  0.2296321619045359  0.4458344082684670
  0.3000266024696898  0.2298384773297236  0.4458151557367048
  0.5000474644315092  0.2298184970218595  0.4457336125433836
  0.6999218623041569  0.2297339939368633  0.4458126810987531
  0.9000306794940358  0.2296412636633733  0.4458718246085387
  0.0998874000969745  0.4798901170384220  0.4454883002864869
  0.3001876200424169  0.4797625962618672  0.4456081893945165
  0.4997327159461388  0.4798947119512846  0.4454465381468820
  0.6999879403404266  0.4799694295726823  0.4455546524354800
  0.9000522306047587  0.4795946994209168  0.4459391423865167
  0.1001575820291253  0.7294333568591612  0.4458320348303087
  0.2999774205321561  0.7295102279445111  0.4453943973908943
  0.5000220342488557  0.7295800854303995  0.4457649404299919
  0.6997266380494542  0.7295482419801222  0.4459250437945467
  0.9000289168750604  0.7296028883160861  0.4459497073264491
  0.0998671159581552  0.9798415510955930  0.4457467028044075
  0.2999714393681042  0.9796349925618576  0.4458365368927438
  0.4999971150144287  0.9796748048747962  0.4458989609174848
  0.7000270549475721  0.9796759027619759  0.4458230557574290
  0.9000335857474929  0.9797305715092961  0.4458108864979486
  0.0999720698087995  0.0202794227797870  0.5541056599281782
  0.3000105405326658  0.0203704552272060  0.5541184763050157
  0.4999890161230374  0.0202940956280912  0.5540904940929668
  0.6999943787677632  0.0203304174049585  0.5541608327824878
  0.9000348745333931  0.0202911081694383  0.5541469360971839
  0.1000613766376659  0.2704402682564108  0.5541322012278992
  0.3002149911072917  0.2704535175077374  0.5542052427490275
  0.4998395677737296  0.2704534848172906  0.5542429137772907
  0.6998412483602997  0.2703545647675842  0.5541557518691393
  0.9000183018455382  0.2703896894375329  0.5541541209016113
  0.1004746742825952  0.5201975678897223  0.5536940541680707
  0.2998867843027308  0.5200233834477248  0.5538233224848564
  0.5000418799721292  0.5199900337857020  0.5539523514862247
  0.6995730913608118  0.5202641131627687  0.5538416331550510
  0.9000013082585475  0.5204992967714742  0.5542167818986350
  0.0999525039512430  0.7702248294309201  0.5540921568799730
  0.2995535440947382  0.7699012233038176  0.5538632408585671
  0.5000380657462393  0.7696349005708074  0.5545233503731595
  0.6998623119663796  0.7699708577660740  0.5543752373186213
  0.9000400666094225  0.7704256494800792  0.5541684045388640
 -0.0000013656161196  0.1451177451056856  0.4457961706963025
  0.2000928297907918  0.1452843365724126  0.4459342194302746
  0.3999512359041148  0.1454074563916269  0.4458365184488240
  0.6000410517219547  0.1453071599520930  0.4458006508357186
  0.7999236285526331  0.1453064601487496  0.4459214009644508
  0.0000333116143572  0.3952359601101370  0.4458193668833729
  0.1999565669922422  0.3955750766881619  0.4459637721318435
  0.4000136815942764  0.3951590423029510  0.4458405832635885
  0.5998902958553439  0.3956250806338695  0.4461324271619086
  0.8000260648536494  0.3953616451817935  0.4458086655815113
  0.0001248103674002  0.6451897910911573  0.4459411883556916
  0.2000987713319089  0.6450061734239948  0.4453147764557349
  0.3998617363132568  0.6454780563699705  0.4455781811879225
  0.5999786824504987  0.6448525873011611  0.4454061448883858
  0.7998050833592459  0.6453135572685734  0.4460258131918179
 -0.0000015005513167  0.8952481641171329  0.4458242787078429
  0.1997649742328289  0.8954302114129919  0.4458594258194843
  0.3999481777890107  0.8951370277987117  0.4461252225874755
  0.6000330703742435  0.8952323767408970  0.4459712445104892
  0.8000952735607464  0.8952819933291097  0.4457798992449270
 -0.0000021236237607  0.1047927472629619  0.5542466681015444
  0.1999135621293116  0.1047230695233506  0.5543201513595121
  0.3999977923164181  0.1047737404209199  0.5542023352049020
  0.6000183234880422  0.1047387799513072  0.5541594706084081
  0.8000755235520651  0.1046936208636701  0.5542771448965547
  0.0000442493916807  0.3548512429810390  0.5542585971408648
  0.2001693781441099  0.3548771182501571  0.5544158465598823
  0.3999499974969482  0.3552921937418657  0.5546453548120287
  0.5999460432573903  0.3549018137480607  0.5546088580945630
  0.7998658734269606  0.3546919196941513  0.5541633109622934
  0.0002485773306743  0.6046619838015663  0.5542620665668472
  0.2003589752853986  0.6049841044730285  0.5533535030441551
  0.3998532481063665  0.6048272605673389  0.5536346639120321
  0.5996239391359671  0.6052224874793983  0.5538327176978369
  0.7998429649693839  0.6046551305911050  0.5543469079119206
  0.0000700438846058  0.8548719673954999  0.5542622568496943
  0.2000829221232391  0.8545903703005635  0.5540671831027612
  0.3998723633589244  0.8541743926053961  0.5544962512523276
  0.5999352456007290  0.8543987544907837  0.5543582200808391
  0.7998011052247163  0.8546376255998381  0.5541580060590967
  0.3808270805956615  0.4857282404617783  0.7292836785132970
  0.4186862556007819  0.6141575154645235  0.7263182960260971
  0.2791029642621175  0.5838602179437836  0.7234790057794269
  0.2705311478846375  0.6632348239668540  0.7191266917651076
  0.3623414278754787  0.5542344489031751  0.7267765425658177
  0.5034372522771445  0.6082766909179796  0.7247964887558452
  0.2103255874702198  0.5373520506276013  0.7236178369772525
  0.1946929511587511  0.6977949004852207  0.7151578857050689
  0.5504695791907196  0.6752213921983985  0.7251663946514733
  0.5434524589943575  0.5371192858284073  0.7224708744822768
  0.1342651808405874  0.5709986508783388  0.7196880481373173
  0.1267583187152799  0.6506448414836651  0.7154759919201822
  0.6344583262285935  0.6718505074006077  0.7234046418444511
  0.6276696733661215  0.5347693079325457  0.7209763840976816
  0.6738040752978299  0.6014612259207495  0.7213460482766051
  0.3720720334566103  0.7129826627556832  0.7183821484820752
  0.2183215790135180  0.4755156877375677  0.7261316870572546
  0.1881581146707204  0.7596085849302548  0.7111379532170140
  0.5212963669946219  0.7312320307619961  0.7268166454163121
  0.5077976321799151  0.4849897464284820  0.7223170759503976
  0.0802001278370340  0.5353391411353225  0.7194888972494271
  0.0666977702161363  0.6763851193175399  0.7112354619973784
  0.6690799713888216  0.7248546008370882  0.7231632462698715
  0.6572785662651407  0.4791604785012539  0.7189034125516025
  0.7396995862355977  0.5987635926256065  0.7197057623658426
 
  0.00000000E+00  0.00000000E+00  0.00000000E+00
  0.00000000E+00  0.00000000E+00  0.00000000E+00
  0.00000000E+00  0.00000000E+00  0.00000000E+00
  0.00000000E+00  0.00000000E+00  0.00000000E+00
  0.00000000E+00  0.00000000E+00  0.00000000E+00
  0.00000000E+00  0.00000000E+00  0.00000000E+00
  0.00000000E+00  0.00000000E+00  0.00000000E+00
  0.00000000E+00  0.00000000E+00  0.00000000E+00
  0.00000000E+00  0.00000000E+00  0.00000000E+00
  0.00000000E+00  0.00000000E+00  0.00000000E+00
  0.00000000E+00  0.00000000E+00  0.00000000E+00
  0.00000000E+00  0.00000000E+00  0.00000000E+00
  0.00000000E+00  0.00000000E+00  0.00000000E+00
  0.00000000E+00  0.00000000E+00  0.00000000E+00
  0.00000000E+00  0.00000000E+00  0.00000000E+00
  0.00000000E+00  0.00000000E+00  0.00000000E+00
  0.00000000E+00  0.00000000E+00  0.00000000E+00
  0.00000000E+00  0.00000000E+00  0.00000000E+00
  0.00000000E+00  0.00000000E+00  0.00000000E+00
  0.00000000E+00  0.00000000E+00  0.00000000E+00
  0.00000000E+00  0.00000000E+00  0.00000000E+00
  0.00000000E+00  0.00000000E+00  0.00000000E+00
  0.00000000E+00  0.00000000E+00  0.00000000E+00
  0.00000000E+00  0.00000000E+00  0.00000000E+00
  0.00000000E+00  0.00000000E+00  0.00000000E+00
  0.00000000E+00  0.00000000E+00  0.00000000E+00
  0.00000000E+00  0.00000000E+00  0.00000000E+00
  0.00000000E+00  0.00000000E+00  0.00000000E+00
  0.00000000E+00  0.00000000E+00  0.00000000E+00
  0.00000000E+00  0.00000000E+00  0.00000000E+00
  0.00000000E+00  0.00000000E+00  0.00000000E+00
  0.00000000E+00  0.00000000E+00  0.00000000E+00
  0.00000000E+00  0.00000000E+00  0.00000000E+00
  0.00000000E+00  0.00000000E+00  0.00000000E+00
  0.00000000E+00  0.00000000E+00  0.00000000E+00
  0.00000000E+00  0.00000000E+00  0.00000000E+00
  0.00000000E+00  0.00000000E+00  0.00000000E+00
  0.00000000E+00  0.00000000E+00  0.00000000E+00
  0.00000000E+00  0.00000000E+00  0.00000000E+00
  0.00000000E+00  0.00000000E+00  0.00000000E+00
  0.00000000E+00  0.00000000E+00  0.00000000E+00
  0.00000000E+00  0.00000000E+00  0.00000000E+00
  0.00000000E+00  0.00000000E+00  0.00000000E+00
  0.00000000E+00  0.00000000E+00  0.00000000E+00
  0.00000000E+00  0.00000000E+00  0.00000000E+00
  0.00000000E+00  0.00000000E+00  0.00000000E+00
  0.00000000E+00  0.00000000E+00  0.00000000E+00
  0.00000000E+00  0.00000000E+00  0.00000000E+00
  0.00000000E+00  0.00000000E+00  0.00000000E+00
  0.00000000E+00  0.00000000E+00  0.00000000E+00
  0.00000000E+00  0.00000000E+00  0.00000000E+00
  0.00000000E+00  0.00000000E+00  0.00000000E+00
  0.00000000E+00  0.00000000E+00  0.00000000E+00
  0.00000000E+00  0.00000000E+00  0.00000000E+00
  0.00000000E+00  0.00000000E+00  0.00000000E+00
  0.00000000E+00  0.00000000E+00  0.00000000E+00
  0.00000000E+00  0.00000000E+00  0.00000000E+00
  0.00000000E+00  0.00000000E+00  0.00000000E+00
  0.00000000E+00  0.00000000E+00  0.00000000E+00
  0.00000000E+00  0.00000000E+00  0.00000000E+00
  0.00000000E+00  0.00000000E+00  0.00000000E+00
  0.00000000E+00  0.00000000E+00  0.00000000E+00
  0.00000000E+00  0.00000000E+00  0.00000000E+00
  0.00000000E+00  0.00000000E+00  0.00000000E+00
  0.00000000E+00  0.00000000E+00  0.00000000E+00
  0.00000000E+00  0.00000000E+00  0.00000000E+00
  0.00000000E+00  0.00000000E+00  0.00000000E+00
  0.00000000E+00  0.00000000E+00  0.00000000E+00
  0.00000000E+00  0.00000000E+00  0.00000000E+00
  0.00000000E+00  0.00000000E+00  0.00000000E+00
  0.00000000E+00  0.00000000E+00  0.00000000E+00
  0.00000000E+00  0.00000000E+00  0.00000000E+00
  0.00000000E+00  0.00000000E+00  0.00000000E+00
  0.00000000E+00  0.00000000E+00  0.00000000E+00
  0.00000000E+00  0.00000000E+00  0.00000000E+00
  0.00000000E+00  0.00000000E+00  0.00000000E+00
  0.00000000E+00  0.00000000E+00  0.00000000E+00
  0.00000000E+00  0.00000000E+00  0.00000000E+00
  0.00000000E+00  0.00000000E+00  0.00000000E+00
  0.00000000E+00  0.00000000E+00  0.00000000E+00
  0.00000000E+00  0.00000000E+00  0.00000000E+00
  0.00000000E+00  0.00000000E+00  0.00000000E+00
  0.00000000E+00  0.00000000E+00  0.00000000E+00
  0.00000000E+00  0.00000000E+00  0.00000000E+00
  0.00000000E+00  0.00000000E+00  0.00000000E+00
  0.00000000E+00  0.00000000E+00  0.00000000E+00
  0.00000000E+00  0.00000000E+00  0.00000000E+00
  0.00000000E+00  0.00000000E+00  0.00000000E+00
  0.00000000E+00  0.00000000E+00  0.00000000E+00
  0.00000000E+00  0.00000000E+00  0.00000000E+00
  0.00000000E+00  0.00000000E+00  0.00000000E+00
  0.00000000E+00  0.00000000E+00  0.00000000E+00
  0.00000000E+00  0.00000000E+00  0.00000000E+00
  0.00000000E+00  0.00000000E+00  0.00000000E+00
  0.00000000E+00  0.00000000E+00  0.00000000E+00
  0.00000000E+00  0.00000000E+00  0.00000000E+00
  0.00000000E+00  0.00000000E+00  0.00000000E+00
  0.00000000E+00  0.00000000E+00  0.00000000E+00
  0.00000000E+00  0.00000000E+00  0.00000000E+00
  0.00000000E+00  0.00000000E+00  0.00000000E+00
  0.00000000E+00  0.00000000E+00  0.00000000E+00
  0.00000000E+00  0.00000000E+00  0.00000000E+00
  0.00000000E+00  0.00000000E+00  0.00000000E+00
  0.00000000E+00  0.00000000E+00  0.00000000E+00
  0.00000000E+00  0.00000000E+00  0.00000000E+00
