Black-P_Favip                           
   1.00000000000000     
    13.2399997711000008    0.0000000000000000    0.0000000000000000
     0.0000000000000000   17.5200004577999984    0.0000000000000000
     0.0000000000000000    0.0000000000000000   19.6079998015999983
   P    F    O    N    C    H 
    64     1     2     3     5     4
Direct
  0.1263668689850717  0.2368529657421459  0.4465961908701516
  0.3761402783334676  0.2375515022328450  0.4471221245737697
  0.6263943634713536  0.2369844277892459  0.4466089157390900
  0.8761064646661563  0.2365070040231732  0.4464587586558951
  0.1258583490741390  0.4873567313362672  0.4444268977795421
  0.3764610315487263  0.4873021597813244  0.4416258790568524
  0.6264690195159572  0.4863615116491731  0.4421933697203586
  0.8765173355614116  0.4864315672445563  0.4441364296727505
  0.1268028034714163  0.7371381859294580  0.4446231327032235
  0.3759434757422384  0.7370308615051772  0.4444772154017502
  0.6260453726235025  0.7381629775097341  0.4440908864526345
  0.8769493914891124  0.7382426767307415  0.4442135061889316
  0.1263412743934988  0.9879708209949383  0.4474977546958975
  0.3761379382491443  0.9878403061608154  0.4474073376531709
  0.6259073397384023  0.9878852048788559  0.4472682115181126
  0.8762759571829225  0.9878817077409976  0.4473941595619311
  0.1263132364191820  0.0280629170181785  0.5559997284880446
  0.3762529888748888  0.0279975657318962  0.5559780208988943
  0.6259068363851686  0.0279279295338322  0.5558252650818146
  0.8761671591169987  0.0279132588779018  0.5559421152011640
  0.1267675919617769  0.2790164490494150  0.5544601079079294
  0.3767935414674717  0.2802588851540004  0.5549062862568638
  0.6250574639476851  0.2788876332764937  0.5545519664356726
  0.8762891069818939  0.2781795641954192  0.5544815797244588
  0.1264231067441248  0.5279101421699386  0.5527697117978646
  0.3770698172840921  0.5268607860643039  0.5501256362875983
  0.6264143085188989  0.5281368763681452  0.5498896565948873
  0.8759899128925662  0.5286053631134024  0.5518659358295276
  0.1263429238648649  0.7766285467204278  0.5533064056701410
  0.3761137352626452  0.7762552116495549  0.5533593114889928
  0.6262591820165104  0.7765783612038027  0.5531428339284196
  0.8759130541135558  0.7769933507216089  0.5531454318384507
  0.0014339023068151  0.1523991524867052  0.4471267787992482
  0.2516193183297200  0.1527418324786117  0.4475460940252847
  0.5009384480270846  0.1530268421736697  0.4473395017278990
  0.7509692614761888  0.1521621505998196  0.4472208698757899
  0.0016057484081820  0.4022580606057838  0.4450828249628197
  0.2509444290367805  0.4030358029797292  0.4442748668751151
  0.5011282403235492  0.4019828290376134  0.4425795155813413
  0.7515338642334751  0.4021742475649630  0.4448505561836116
  0.0012901927832910  0.6532170236495697  0.4442326218819421
  0.2512854648220447  0.6521441770828511  0.4446972931524055
  0.5015784493699180  0.6530869853512499  0.4436416965280271
  0.7515896184951426  0.6540109656765469  0.4424423884024246
  0.0013788736866668  0.9035158955337996  0.4467931147638131
  0.2511721994662557  0.9034773165846696  0.4464472285235852
  0.5010245998902126  0.9033322329542131  0.4467050209529901
  0.7510812563471393  0.9036566120341657  0.4463471102831754
  0.0011878238088157  0.1124720913844474  0.5556275347513948
  0.2513479747514359  0.1126463735208404  0.5560429455570548
  0.5011265522159269  0.1126665616502300  0.5558061811635862
  0.7509972821457043  0.1123938422364502  0.5557773991471736
  0.0010582171411494  0.3629034228199915  0.5537792968481497
  0.2511251861987431  0.3640945759358456  0.5533291885095638
  0.5016220727101067  0.3648129099397905  0.5519532038913693
  0.7509988153075072  0.3623603010825738  0.5535180152542022
  0.0015045846338265  0.6125366213102893  0.5525914072619432
  0.2524483023170383  0.6117150674478485  0.5531942531839559
  0.5011366308595142  0.6121265516208086  0.5518219459578793
  0.7508290938350961  0.6127259838641077  0.5503401361747911
  0.0013334813782631  0.8611219817045452  0.5545553717397772
  0.2513109443307067  0.8609709845812714  0.5542069657394737
  0.5009981946981170  0.8608608323749553  0.5544795194248906
  0.7508659797356630  0.8613475999443522  0.5541374241850223
  0.6887122431240598  0.6535099055482924  0.7275475855904905
  0.5563356870714253  0.3644085280868778  0.7144308952269397
  0.3511782617444206  0.5531963759174278  0.7085323100049828
  0.6856646672581030  0.4507100090577741  0.7140300981055654
  0.5560183287860468  0.5703980252139261  0.7228119343040794
  0.3670685404510671  0.4231724777955821  0.7170635893066996
  0.5180742844983218  0.5006766053677513  0.7187604558194230
  0.5827358007951563  0.4327457496100647  0.7158962242503372
  0.7240363378938410  0.5224113627990186  0.7162483293377538
  0.6550608561691106  0.5807176178252942  0.7224629876492691
  0.4038354534096321  0.4953362208022742  0.7145945656158783
  0.7325792815563462  0.4051488866921877  0.7065177852875754
  0.8055067859016012  0.5299107398934763  0.7129996681089825
  0.2918684342510244  0.4157395776022205  0.7092375355618153
  0.4168892611210053  0.3782265294776750  0.7173668758457790
 
  0.00000000E+00  0.00000000E+00  0.00000000E+00
  0.00000000E+00  0.00000000E+00  0.00000000E+00
  0.00000000E+00  0.00000000E+00  0.00000000E+00
  0.00000000E+00  0.00000000E+00  0.00000000E+00
  0.00000000E+00  0.00000000E+00  0.00000000E+00
  0.00000000E+00  0.00000000E+00  0.00000000E+00
  0.00000000E+00  0.00000000E+00  0.00000000E+00
  0.00000000E+00  0.00000000E+00  0.00000000E+00
  0.00000000E+00  0.00000000E+00  0.00000000E+00
  0.00000000E+00  0.00000000E+00  0.00000000E+00
  0.00000000E+00  0.00000000E+00  0.00000000E+00
  0.00000000E+00  0.00000000E+00  0.00000000E+00
  0.00000000E+00  0.00000000E+00  0.00000000E+00
  0.00000000E+00  0.00000000E+00  0.00000000E+00
  0.00000000E+00  0.00000000E+00  0.00000000E+00
  0.00000000E+00  0.00000000E+00  0.00000000E+00
  0.00000000E+00  0.00000000E+00  0.00000000E+00
  0.00000000E+00  0.00000000E+00  0.00000000E+00
  0.00000000E+00  0.00000000E+00  0.00000000E+00
  0.00000000E+00  0.00000000E+00  0.00000000E+00
  0.00000000E+00  0.00000000E+00  0.00000000E+00
  0.00000000E+00  0.00000000E+00  0.00000000E+00
  0.00000000E+00  0.00000000E+00  0.00000000E+00
  0.00000000E+00  0.00000000E+00  0.00000000E+00
  0.00000000E+00  0.00000000E+00  0.00000000E+00
  0.00000000E+00  0.00000000E+00  0.00000000E+00
  0.00000000E+00  0.00000000E+00  0.00000000E+00
  0.00000000E+00  0.00000000E+00  0.00000000E+00
  0.00000000E+00  0.00000000E+00  0.00000000E+00
  0.00000000E+00  0.00000000E+00  0.00000000E+00
  0.00000000E+00  0.00000000E+00  0.00000000E+00
  0.00000000E+00  0.00000000E+00  0.00000000E+00
  0.00000000E+00  0.00000000E+00  0.00000000E+00
  0.00000000E+00  0.00000000E+00  0.00000000E+00
  0.00000000E+00  0.00000000E+00  0.00000000E+00
  0.00000000E+00  0.00000000E+00  0.00000000E+00
  0.00000000E+00  0.00000000E+00  0.00000000E+00
  0.00000000E+00  0.00000000E+00  0.00000000E+00
  0.00000000E+00  0.00000000E+00  0.00000000E+00
  0.00000000E+00  0.00000000E+00  0.00000000E+00
  0.00000000E+00  0.00000000E+00  0.00000000E+00
  0.00000000E+00  0.00000000E+00  0.00000000E+00
  0.00000000E+00  0.00000000E+00  0.00000000E+00
  0.00000000E+00  0.00000000E+00  0.00000000E+00
  0.00000000E+00  0.00000000E+00  0.00000000E+00
  0.00000000E+00  0.00000000E+00  0.00000000E+00
  0.00000000E+00  0.00000000E+00  0.00000000E+00
  0.00000000E+00  0.00000000E+00  0.00000000E+00
  0.00000000E+00  0.00000000E+00  0.00000000E+00
  0.00000000E+00  0.00000000E+00  0.00000000E+00
  0.00000000E+00  0.00000000E+00  0.00000000E+00
  0.00000000E+00  0.00000000E+00  0.00000000E+00
  0.00000000E+00  0.00000000E+00  0.00000000E+00
  0.00000000E+00  0.00000000E+00  0.00000000E+00
  0.00000000E+00  0.00000000E+00  0.00000000E+00
  0.00000000E+00  0.00000000E+00  0.00000000E+00
  0.00000000E+00  0.00000000E+00  0.00000000E+00
  0.00000000E+00  0.00000000E+00  0.00000000E+00
  0.00000000E+00  0.00000000E+00  0.00000000E+00
  0.00000000E+00  0.00000000E+00  0.00000000E+00
  0.00000000E+00  0.00000000E+00  0.00000000E+00
  0.00000000E+00  0.00000000E+00  0.00000000E+00
  0.00000000E+00  0.00000000E+00  0.00000000E+00
  0.00000000E+00  0.00000000E+00  0.00000000E+00
  0.00000000E+00  0.00000000E+00  0.00000000E+00
  0.00000000E+00  0.00000000E+00  0.00000000E+00
  0.00000000E+00  0.00000000E+00  0.00000000E+00
  0.00000000E+00  0.00000000E+00  0.00000000E+00
  0.00000000E+00  0.00000000E+00  0.00000000E+00
  0.00000000E+00  0.00000000E+00  0.00000000E+00
  0.00000000E+00  0.00000000E+00  0.00000000E+00
  0.00000000E+00  0.00000000E+00  0.00000000E+00
  0.00000000E+00  0.00000000E+00  0.00000000E+00
  0.00000000E+00  0.00000000E+00  0.00000000E+00
  0.00000000E+00  0.00000000E+00  0.00000000E+00
  0.00000000E+00  0.00000000E+00  0.00000000E+00
  0.00000000E+00  0.00000000E+00  0.00000000E+00
  0.00000000E+00  0.00000000E+00  0.00000000E+00
  0.00000000E+00  0.00000000E+00  0.00000000E+00
